p cnf 60 118
e 1 2 3 4 5 6 7 8 9 10 11 12 13 14 15 16 17 18 19 20 21 22 23 24 25 26 27 28 29 30 0
a 31 0
e 32 33 34 35 36 37 38 39 40 41 42 43 44 45 46 47 48 49 50 51 52 53 54 55 56 57 58 59 60 0
-1 -2 -32 0
-1 2 32 0
1 -2 32 0
1 2 -32 0
-32 -3 -33 0
-32 3 33 0
32 -3 33 0
32 3 -33 0
-33 -4 -34 0
-33 4 34 0
33 -4 34 0
33 4 -34 0
-34 -5 -35 0
-34 5 35 0
34 -5 35 0
34 5 -35 0
-35 -6 -36 0
-35 6 36 0
35 -6 36 0
35 6 -36 0
-36 -7 -37 0
-36 7 37 0
36 -7 37 0
36 7 -37 0
-37 -8 -38 0
-37 8 38 0
37 -8 38 0
37 8 -38 0
-38 -9 -39 0
-38 9 39 0
38 -9 39 0
38 9 -39 0
-39 -10 -40 0
-39 10 40 0
39 -10 40 0
39 10 -40 0
-40 -11 -41 0
-40 11 41 0
40 -11 41 0
40 11 -41 0
-41 -12 -42 0
-41 12 42 0
41 -12 42 0
41 12 -42 0
-42 -13 -43 0
-42 13 43 0
42 -13 43 0
42 13 -43 0
-43 -14 -44 0
-43 14 44 0
43 -14 44 0
43 14 -44 0
-44 -15 -45 0
-44 15 45 0
44 -15 45 0
44 15 -45 0
-45 -16 -46 0
-45 16 46 0
45 -16 46 0
45 16 -46 0
-46 -17 -47 0
-46 17 47 0
46 -17 47 0
46 17 -47 0
-47 -18 -48 0
-47 18 48 0
47 -18 48 0
47 18 -48 0
-48 -19 -49 0
-48 19 49 0
48 -19 49 0
48 19 -49 0
-49 -20 -50 0
-49 20 50 0
49 -20 50 0
49 20 -50 0
-50 -21 -51 0
-50 21 51 0
50 -21 51 0
50 21 -51 0
-51 -22 -52 0
-51 22 52 0
51 -22 52 0
51 22 -52 0
-52 -23 -53 0
-52 23 53 0
52 -23 53 0
52 23 -53 0
-53 -24 -54 0
-53 24 54 0
53 -24 54 0
53 24 -54 0
-54 -25 -55 0
-54 25 55 0
54 -25 55 0
54 25 -55 0
-55 -26 -56 0
-55 26 56 0
55 -26 56 0
55 26 -56 0
-56 -27 -57 0
-56 27 57 0
56 -27 57 0
56 27 -57 0
-57 -28 -58 0
-57 28 58 0
57 -28 58 0
57 28 -58 0
-58 -29 -59 0
-58 29 59 0
58 -29 59 0
58 29 -59 0
-59 -30 -60 0
-59 30 60 0
59 -30 60 0
59 30 -60 0
31 60 0
-31 -60 0
